761533 14171323
15
18 870484 404883 87829
15 341457 859119 442396 
29 48154 376342 475725 
11 309749 504034 51027 
19 111958 510670 597499 
15 31689 250996 840374 
13 192456 475670 419818 
19 753555 77882 96943 
25 482764 184771 85851 
29 560242 528246 134417 
13 420940 610141 360609 
5 630526 411635 966443 
25 922304 80293 611562 
19 331288 968287 801816 
9 443956 737985 359309